20
1 0 70
2 0 89
2 1 56
3 0 90
3 1 8
3 2 48
4 0 88
4 1 88
4 2 25
4 3 57
5 0 71
5 1 30
5 2 42
5 3 9
5 4 22
6 0 57
6 1 49
6 2 1
6 3 68
6 4 43
6 5 81
7 0 82
7 1 29
7 2 99
7 3 14
7 4 65
7 5 30
7 6 97
8 0 21
8 1 33
8 2 51
8 3 3
8 4 73
8 5 9
8 6 57
8 7 49
9 0 95
9 1 69
9 2 81
9 3 97
9 4 94
9 5 13
9 6 47
9 7 50
9 8 31
10 0 30
10 1 49
10 2 35
10 3 3
10 4 22
10 5 45
10 6 60
10 7 49
10 8 58
10 9 2
11 0 4
11 1 2
11 2 98
11 3 23
11 4 18
11 5 51
11 6 85
11 7 40
11 8 20
11 9 89
11 10 10
12 0 38
12 1 26
12 2 46
12 3 92
12 4 60
12 5 54
12 6 51
12 7 23
12 8 10
12 9 83
12 10 64
12 11 88
13 0 40
13 1 49
13 2 69
13 3 31
13 4 89
13 5 34
13 6 19
13 7 59
13 8 34
13 9 57
13 10 86
13 11 83
13 12 35
14 0 74
14 1 45
14 2 42
14 3 15
14 4 70
14 5 91
14 6 65
14 7 86
14 8 63
14 9 87
14 10 64
14 11 23
14 12 84
14 13 69
15 0 63
15 1 48
15 2 92
15 3 74
15 4 5
15 5 62
15 6 35
15 7 61
15 8 86
15 9 61
15 10 67
15 11 31
15 12 29
15 13 98
15 14 85
16 0 90
16 1 73
16 2 97
16 3 46
16 4 83
16 5 43
16 6 15
16 7 76
16 8 9
16 9 52
16 10 28
16 11 83
16 12 98
16 13 14
16 14 66
16 15 28
17 0 98
17 1 96
17 2 29
17 3 32
17 4 15
17 5 22
17 6 77
17 7 10
17 8 92
17 9 19
17 10 48
17 11 60
17 12 24
17 13 68
17 14 62
17 15 57
17 16 61
18 0 75
18 1 14
18 2 20
18 3 18
18 4 15
18 5 73
18 6 60
18 7 11
18 8 91
18 9 14
18 10 23
18 11 96
18 12 96
18 13 71
18 14 89
18 15 51
18 16 11
18 17 97
19 0 82
19 1 57
19 2 39
19 3 34
19 4 10
19 5 63
19 6 75
19 7 62
19 8 50
19 9 22
19 10 67
19 11 72
19 12 21
19 13 52
19 14 97
19 15 66
19 16 30
19 17 58
19 18 16
